NAME : random1249620
COMMENT: random generated with id 1249620
TYPE : TSP
DIMENSION : 21
EDGE_WEIGHT_TYPE : EUC_2D
NODE_COORD_SECTION
1 3.128492 7.523944
2 0.143908 1.444549
3 17.602111 8.118114
4 17.201003 15.989588
5 5.674330 6.186293
6 9.447224 14.924030
7 12.227571 2.687415
8 8.755577 5.050266
9 5.495841 18.833289
10 4.111930 7.157067
11 0.244817 19.156618
12 8.220895 0.529032
13 1.495425 19.337437
14 5.606684 5.734608
15 1.266725 11.285093
16 4.332644 4.395217
17 18.809037 4.476553
18 5.839766 16.411149
19 12.594667 3.040769
20 12.400737 18.268997
21 9.227062 1.847961
EOF
